r = [
0,10,22,39,32,8,14,10,19,9,39,6,9,30,23,8,17,42,17,38,11,41,31,19,6,30,0
];
p = [
0,22,20,3,24,2,14,12,27,9,1,3,20,28,1,22,18,28,20,20,14,22,25,29,26,10,0
];
e = [
0,1,8,11,9,18,17,5,13,8,1,10,12,14,15,16,7,10,3,8,17,8,11,14,17,8,0
];
d = [
0,302,424,484,412,486,303,357,419,410,406,372,458,408,323,365,351,446,322,369,326,426,397,377,439,374,487
];
d_bar = [
0,313,434,486,424,487,310,363,433,415,407,374,468,422,324,376,360,460,332,379,333,437,410,392,452,379,487
];
w = [
0,0.090909091,0.8,5.5,0.75,18,2.428571429,0.833333333,0.928571429,1.6,1,5,1.2,1,15,1.454545455,0.777777778,0.714285714,0.3,0.8,2.428571429,0.727272727,0.846153846,0.933333333,1.307692308,1.6,0
];
